
Gurobi 9.5.0 (linux64) logging started Wed Nov  8 12:05:53 2023

Set parameter LogFile to value "/lustre1/scratch/348/vsc34888/JointResearch/05.Models/06.Benchmarking/F.Representative_days_based_on_Line_Benefit_NN_OC_fy_1/9n_ByStages_nc50/openStarNet_9n_ByStages_nc50.log"
Set parameter Method to value 2
Set parameter MIPFocus to value 1
Set parameter Presolve to value 2
Set parameter RINS to value 100
Set parameter MIPGap to value 0.01
Set parameter Threads to value 36
Set parameter TimeLimit to value 604800
Set parameter IterationLimit to value 760000000
Gurobi Optimizer version 9.5.0 build v9.5.0rc5 (linux64)
Thread count: 36 physical cores, 36 logical processors, using up to 36 threads
Optimize a model with 13103 rows, 6962 columns and 40844 nonzeros
Model fingerprint: 0x0c9ccaae
Variable types: 6926 continuous, 36 integer (36 binary)
Coefficient statistics:
  Matrix range     [8e-04, 5e+03]
  Objective range  [1e+00, 1e+00]
  Bounds range     [4e-04, 2e+00]
  RHS range        [4e-04, 1e+00]
Presolve removed 4253 rows and 2154 columns
Presolve time: 0.05s
Presolved: 8850 rows, 4808 columns, 31322 nonzeros
Variable types: 4772 continuous, 36 integer (36 binary)
Found heuristic solution: objective 889.4638876
Root relaxation presolved: 8850 rows, 4808 columns, 31322 nonzeros

Root barrier log...

Ordering time: 0.00s

Barrier statistics:
 Dense cols : 36
 AA' NZ     : 1.191e+05
 Factor NZ  : 2.388e+05 (roughly 8 MB of memory)
 Factor Ops : 9.771e+06 (less than 1 second per iteration)
 Threads    : 36

                  Objective                Residual
Iter       Primal          Dual         Primal    Dual     Compl     Time
   0   3.56366518e+05 -7.72685909e+07  6.19e+00 4.74e+02  1.32e+04     0s
   1   4.82122280e+04 -2.19653152e+07  6.62e-01 1.83e-09  1.70e+03     0s
   2   1.45728522e+04 -2.89085378e+06  4.20e-03 1.83e-09  1.67e+02     0s
   3   8.29648834e+03 -6.81388294e+04  4.94e-13 3.75e-11  4.39e+00     0s
   4   1.21570706e+03 -1.54221511e+04  3.75e-13 8.14e-12  9.56e-01     0s
   5   6.46640389e+02 -4.73335766e+03  3.47e-13 3.64e-12  3.09e-01     0s
   6   5.40759826e+02 -1.80345136e+03  1.97e-13 1.82e-12  1.35e-01     0s
   7   4.79969349e+02 -1.18525580e+03  2.04e-13 1.82e-12  9.56e-02     0s
   8   3.27259555e+02 -3.43578343e+02  1.68e-13 1.82e-12  3.85e-02     0s
   9   1.51378859e+02 -1.69659192e+02  2.98e-13 1.82e-12  1.84e-02     0s
  10   1.22535463e+02  1.86518281e+00  4.73e-13 1.82e-12  6.93e-03     0s
  11   1.02642939e+02  5.68947762e+01  4.35e-13 3.64e-12  2.63e-03     0s
  12   9.63508294e+01  6.71033346e+01  1.02e-12 1.82e-12  1.68e-03     0s
  13   9.46871566e+01  7.29171529e+01  8.44e-13 1.82e-12  1.25e-03     0s
  14   9.20986602e+01  8.49242707e+01  1.01e-12 1.82e-12  4.12e-04     0s
  15   8.98917207e+01  8.84491093e+01  4.38e-12 1.82e-12  8.28e-05     0s
  16   8.97402714e+01  8.89340386e+01  1.24e-11 1.82e-12  4.63e-05     0s
  17   8.94545869e+01  8.92587222e+01  2.95e-11 1.82e-12  1.12e-05     0s
  18   8.94436407e+01  8.94007260e+01  1.18e-08 3.64e-12  2.46e-06     0s
  19   8.94087137e+01  8.94043433e+01  1.98e-10 3.64e-12  2.51e-07     0s
  20   8.94047865e+01  8.94047692e+01  2.80e-09 3.64e-12  9.92e-10     0s
  21   8.94047706e+01  8.94047705e+01  2.42e-11 1.82e-12  9.92e-13     0s

Barrier solved model in 21 iterations and 0.35 seconds (0.23 work units)
Optimal objective 8.94047706e+01


Root relaxation: objective 8.940477e+01, 474 iterations, 0.27 seconds (0.11 work units)

    Nodes    |    Current Node    |     Objective Bounds      |     Work
 Expl Unexpl |  Obj  Depth IntInf | Incumbent    BestBd   Gap | It/Node Time

     0     0   89.40477    0    6  889.46389   89.40477  89.9%     -    0s
H    0     0                     203.8519691   96.93970  52.4%     -    0s
     0     0   96.93970    0    1  203.85197   96.93970  52.4%     -    0s
H    0     0                      97.9317208   96.93970  1.01%     -    0s

Cutting planes:
  Gomory: 2
  Implied bound: 3
  MIR: 122
  Relax-and-lift: 3

Explored 1 nodes (752 simplex iterations) in 0.59 seconds (0.37 work units)
Thread count was 36 (of 36 available processors)

Solution count 3: 97.9317 203.852 889.464 

Optimal solution found (tolerance 1.00e-02)
Best objective 9.793172082495e+01, best bound 9.725159113403e+01, gap 0.6945%

Gurobi 9.5.0 (linux64) logging started Wed Nov  8 12:05:55 2023

Set parameter LogFile to value "/lustre1/scratch/348/vsc34888/JointResearch/05.Models/06.Benchmarking/F.Representative_days_based_on_Line_Benefit_NN_OC_fy_1/9n_ByStages_nc50/openStarNet_9n_ByStages_nc50.log"
Set parameter Method to value 2
Set parameter MIPFocus to value 1
Set parameter Presolve to value 2
Set parameter RINS to value 100
Set parameter MIPGap to value 0.01
Set parameter Threads to value 36
Set parameter TimeLimit to value 604800
Set parameter IterationLimit to value 760000000
No parameters matching 'relax_integrality' found
Gurobi Optimizer version 9.5.0 build v9.5.0rc5 (linux64)
Thread count: 36 physical cores, 36 logical processors, using up to 36 threads
Optimize a model with 13103 rows, 6926 columns and 33608 nonzeros
Model fingerprint: 0x213f8b6f
Coefficient statistics:
  Matrix range     [8e-04, 5e+03]
  Objective range  [1e+00, 1e+00]
  Bounds range     [4e-04, 2e+00]
  RHS range        [4e-04, 2e+01]
Presolve removed 11353 rows and 3885 columns
Presolve time: 0.01s
Presolved: 1750 rows, 3041 columns, 6591 nonzeros

Ordering time: 0.00s

Barrier statistics:
 AA' NZ     : 4.600e+03
 Factor NZ  : 1.785e+04 (roughly 2 MB of memory)
 Factor Ops : 2.194e+05 (less than 1 second per iteration)
 Threads    : 1

                  Objective                Residual
Iter       Primal          Dual         Primal    Dual     Compl     Time
   0   3.98006587e+05 -4.57488045e+07  3.50e+00 1.82e-12  1.63e+04     0s
   1   5.99859500e+04 -9.17562046e+06  3.63e-01 9.89e-12  1.94e+03     0s
   2   1.70507598e+04 -1.35843148e+06  5.66e-03 1.18e-11  2.08e+02     0s
   3   9.69920323e+03 -4.19244935e+04  4.09e-14 4.55e-12  7.73e+00     0s
   4   1.48318294e+03 -7.97555053e+03  9.50e-14 2.55e-12  1.42e+00     0s
   5   6.18708437e+02 -2.40833288e+03  6.22e-14 1.82e-12  4.53e-01     0s
   6   3.67210441e+02 -5.22546270e+02  1.02e-13 3.64e-12  1.33e-01     0s
   7   2.18695050e+02 -1.84184123e+02  3.46e-13 1.82e-12  6.03e-02     0s
   8   1.28060793e+02  1.98835396e+01  3.51e-13 3.64e-12  1.62e-02     0s
   9   1.03859318e+02  6.85894117e+01  3.35e-13 1.82e-12  5.28e-03     0s
  10   1.00334566e+02  8.87592959e+01  1.10e-12 1.82e-12  1.73e-03     0s
  11   9.86967308e+01  9.52553834e+01  2.16e-12 1.82e-12  5.15e-04     0s
  12   9.81223486e+01  9.72920038e+01  6.35e-13 1.82e-12  1.24e-04     0s
  13   9.79391334e+01  9.79234936e+01  6.26e-13 3.64e-12  2.34e-06     0s
  14   9.79317340e+01  9.79317017e+01  1.38e-11 1.82e-12  4.84e-09     0s
  15   9.79317208e+01  9.79317208e+01  4.79e-10 1.82e-12  4.84e-12     0s

Barrier solved model in 15 iterations and 0.04 seconds (0.03 work units)
Optimal objective 9.79317208e+01

Crossover log...

     585 DPushes remaining with DInf 0.0000000e+00                 0s
       0 DPushes remaining with DInf 0.0000000e+00                 0s

      52 PPushes remaining with PInf 0.0000000e+00                 0s
       0 PPushes remaining with PInf 0.0000000e+00                 0s

  Push phase complete: Pinf 0.0000000e+00, Dinf 2.3702177e-13      0s

Iteration    Objective       Primal Inf.    Dual Inf.      Time
     107    9.7931721e+01   0.000000e+00   0.000000e+00      0s

Solved in 107 iterations and 0.05 seconds (0.03 work units)
Optimal objective  9.793172082e+01
